%%%%%%%%%%%%%%%%%%%%%%%%%%%%%%%%%%%%%%%%%%%%%%%%%
%%% INPUT C-MAP

icmap = (
	% name
	name:"icm_R_1_dg_30x34_Louca_Ressources_Humaines",

	% i-type
	itype: itype,

	% node-labeling concepts
	node_labels:[
	(node:1, concept:(name:"Manque_de_techniciens_d_electronique")),
	(node:2, concept:(name:"Contrater_1_eng_electronique")),
	(node:3, concept:(name:"Contrater_1_technicien_electronique")),
	(node:4, concept:(name:"Sortie_de_cadre_cle")),
	(node:5, concept:(name:"Changements_internes")),
	(node:6, concept:(name:"Embaucher_2_commercialles")),
	(node:7, concept:(name:"Embaucher_1_dir_commercial")),
	(node:8, concept:(name:"Renforcer_UA_contrat")),
	(node:9, concept:(name:"Menaces_externes")),
	(node:10, concept:(name:"Image_de_l_entreprise_dans_le_marche_du_travail")),
	(node:11, concept:(name:"Instabilite_sociale")),
	(node:12, concept:(name:"Connaissance_du_marche")),
	(node:13, concept:(name:"Formation_professionnel")),
	(node:14, concept:(name:"Renforcer_Dep_Commercial")),
	(node:15, concept:(name:"Augmenter_flexibilite")),
	(node:16, concept:(name:"Augmenter_competence_technique")),
	(node:17, concept:(name:"Augmenter_remunerations_en_fonction_des_objectifs")),
	(node:18, concept:(name:"Points_faibles")),
	(node:19, concept:(name:"Profil_des_delegues_commerciaux")),
	(node:20, concept:(name:"RH_creatifs")),
	(node:21, concept:(name:"Developpement_de_know_how_technologie")),
	(node:22, concept:(name:"Diffuser_l_esprit_marketing_dans_l_entreprise")),
	(node:23, concept:(name:"Developper_communication_avec_l_exterieur")),
	(node:24, concept:(name:"RH_flexible")),
	(node:25, concept:(name:"RH_Competents")),
	(node:26, concept:(name:"RD_dynamiques")),
	(node:27, concept:(name:"Honetete")),
	(node:28, concept:(name:"Points_forts")),
	(node:29, concept:(name:"Facteurs_cle_de_succes")),
	(node:30, concept:(name:"Conditionner_l_avenir_par_les_facteurs_cle_de_succes_de_la_SETCOM")),
	],

	% arc-labeling influences
	arc_labels:[
	(arc:(t:1, h:2), influence:(iblock:[-1,2])),
	(arc:(t:1, h:3), influence:(iblock:[-1,2])),
	(arc:(t:1, h:18), influence:(iblock:[1,2])),
	(arc:(t:2, h:8), influence:(iblock:[1,2])),
	(arc:(t:3, h:8), influence:(iblock:[1,2])),
	(arc:(t:4, h:9), influence:(iblock:[3,4])),
	(arc:(t:5, h:11), influence:(iblock:[1,2])),
	(arc:(t:6, h:14), influence:(iblock:[1,2])),
	(arc:(t:7, h:14), influence:(iblock:[1,2])),
	(arc:(t:8, h:16), influence:(iblock:[1,2])),
	(arc:(t:9, h:18), influence:(iblock:[1,2])),
	(arc:(t:10, h:18), influence:(iblock:[-1,2])),
	(arc:(t:11, h:18), influence:(iblock:[1,2])),
	(arc:(t:12, h:18), influence:(iblock:[-1,2])),
	(arc:(t:12, h:22), influence:(iblock:[1,2])),
	(arc:(t:13, h:21), influence:(iblock:[3,4])),
	(arc:(t:13, h:22), influence:(iblock:[3,4])),
	(arc:(t:14, h:22), influence:(iblock:[3,4])),
	(arc:(t:14, h:23), influence:(iblock:[3,4])),
	(arc:(t:15, h:24), influence:(iblock:[1,2])),
	(arc:(t:16, h:25), influence:(iblock:[1,2])),
	(arc:(t:17, h:26), influence:(iblock:[1,2])),
	(arc:(t:18, h:29), influence:(iblock:[-1,2])),
	(arc:(t:19, h:28), influence:(iblock:[1,2])),
	(arc:(t:20, h:28), influence:(iblock:[1,2])),
	(arc:(t:21, h:28), influence:(iblock:[1,2])),
	(arc:(t:22, h:28), influence:(iblock:[1,2])),
	(arc:(t:23, h:28), influence:(iblock:[1,2])),
	(arc:(t:24, h:28), influence:(iblock:[1,2])),
	(arc:(t:25, h:28), influence:(iblock:[1,2])),
	(arc:(t:26, h:28), influence:(iblock:[1,2])),
	(arc:(t:27, h:28), influence:(iblock:[1,2])),
	(arc:(t:28, h:29), influence:(iblock:[1,2])),
	(arc:(t:29, h:30), influence:(iblock:[1,2])),
	],
);
