%%%%%%%%%%%%%%%%%%%%%%%%%%%%%%%%%%%%%%%%%%%%%%%%%
%%% INPUT C-MAP

icmap = (
	% name
	name:"icm_R_1_dg_99x114_Louca_produits",

	% i-type
	itype: itype,

	% node-labeling concepts
	node_labels:[
	(node:1, concept:(name:"Creation_de_poste_d_observation_dans_l_usine")),
	(node:2, concept:(name:"Contact_regulier_avec_le_client")),
	(node:3, concept:(name:"Faire_le_client_participer_dans_la_production")),
	(node:4, concept:(name:"Evolution_logique_programmable")),
	(node:5, concept:(name:"Evolution_micro_processeur")),
	(node:6, concept:(name:"Comprendre_les_besoins_des_clients")),
	(node:7, concept:(name:"Flexibilite_dans_la_production")),
	(node:8, concept:(name:"Conception_dossiers_de_fabrication")),
	(node:9, concept:(name:"Evolution_technologique")),
	(node:10, concept:(name:"Augmenter_capacite_d_adaptation")),
	(node:11, concept:(name:"develop/nouvelles_technologies")),
	(node:12, concept:(name:"Develop/nouveaux_produits")),
	(node:13, concept:(name:"Colaborer_avec_l_armee")),
	(node:14, concept:(name:"Accord_avec_Hessing")),
	(node:15, concept:(name:"Recherche_en_c.ardio")),
	(node:16, concept:(name:"Recherche_en_c.fax")),
	(node:17, concept:(name:"Accord_avec_Siemens")),
	(node:18, concept:(name:"Hole_Mount_Technology")),
	(node:19, concept:(name:"Reflow")),
	(node:20, concept:(name:"Pick_and_place")),
	(node:21, concept:(name:"Inspection_visuelle")),
	(node:22, concept:(name:"Inover")),
	(node:23, concept:(name:"Diversifier_produits")),
	(node:24, concept:(name:"Conception_syst_navigation_aerienne")),
	(node:25, concept:(name:"Offre_dans_le_controle_trafic_aerien")),
	(node:26, concept:(name:"Dev_syst_gestion_incendies")),
	(node:27, concept:(name:"Dev_syst_gestion_technique")),
	(node:28, concept:(name:"Developpement_gestion_illumination")),
	(node:29, concept:(name:"Dynamique_de_la_concurrence")),
	(node:30, concept:(name:"multiplication_des_clients")),
	(node:31, concept:(name:"Commandes_de_l_armee")),
	(node:32, concept:(name:"Recherche_en_criptographie")),
	(node:33, concept:(name:"Etablissement_de_partenariats")),
	(node:34, concept:(name:"Standardisation")),
	(node:35, concept:(name:"Dev_syst_controle_de_qualite")),
	(node:36, concept:(name:"Soudure_de_circuits_imprimes")),
	(node:37, concept:(name:"Insertion_de_circuits_imprimes")),
	(node:38, concept:(name:"Tests_de_circuits_imprimes")),
	(node:39, concept:(name:"Creativite dans la conception")),
	(node:40, concept:(name:"Ventes_PE")),
	(node:41, concept:(name:"Dev_syst_gestion_bunkers_OTAN")),
	(node:42, concept:(name:"Ventes_systemes_civiles")),
	(node:43, concept:(name:"Devellopement_CT-14_telephone_confidentiel")),
	(node:44, concept:(name:"Pouvoir_des_clients")),
	(node:45, concept:(name:"Integration_de_CSEG_dans_reseau_RDIS")),
	(node:46, concept:(name:"Integration_de_CSEG_dans_reseaux_analogiques")),
	(node:47, concept:(name:"Equip_production_technologiquement_avance")),
	(node:48, concept:(name:"Recherche_composantes")),
	(node:49, concept:(name:"Compatibilite_entre_produits")),
	(node:50, concept:(name:"Industrialisation_d_un_produit")),
	(node:51, concept:(name:"Augmenter_comptetence_technique")),
	(node:52, concept:(name:"Conception_d_un_produit")),
	(node:53, concept:(name:"Design_fonctionnel")),
	(node:54, concept:(name:"Participer_projet_infante")),
	(node:55, concept:(name:"Reduire_les_couts")),
	(node:56, concept:(name:"Ventes_systemes_militaires")),
	(node:57, concept:(name:"Ventes_marque_TELNIX")),
	(node:58, concept:(name:"Devellopement_recepteur_video_VIDEOTEL_VT-180")),
	(node:59, concept:(name:"Pouvoir_de_salema_et_merca")),
	(node:60, concept:(name:"Pouvoir_de_fournisseurs_de_composantes")),
	(node:61, concept:(name:"Pouvoir_de_P_Lourenco")),
	(node:62, concept:(name:"Pouvoir_de_Novo_Rumo")),
	(node:63, concept:(name:"Amellioration_offre_sur_reseau_Telecom")),
	(node:64, concept:(name:"Integration_de_CSEG_dans_d_autres_reseaux_comm")),
	(node:65, concept:(name:"Augmenter_rapidite_de_fabrication")),
	(node:66, concept:(name:"Barrieres/marche_PE")),
	(node:67, concept:(name:"Barrieres/marches_SIR")),
	(node:68, concept:(name:"Ofrir_un_service_complet")),
	(node:69, concept:(name:"Barrieres/marches_MIL")),
	(node:70, concept:(name:"Barrieres/marches_PTEL")),
	(node:71, concept:(name:"Barrieres/marches_CE")),
	(node:72, concept:(name:"Augmenter_qualite")),
	(node:73, concept:(name:"Prix_des_produits")),
	(node:74, concept:(name:"Simplicite_d_utilisation")),
	(node:75, concept:(name:"Concurrence_de_EFACEC")),
	(node:76, concept:(name:"concurrence_de_TALCABO")),
	(node:77, concept:(name:"Concurrence_de_SIRTI")),
	(node:78, concept:(name:"Concurrence_de_SIEMENS")),
	(node:79, concept:(name:"Concurrrence_de_Philips")),
	(node:80, concept:(name:"Competence_technique")),
	(node:81, concept:(name:"Ventes_DGTE")),
	(node:82, concept:(name:"Ventes_PTEL")),
	(node:83, concept:(name:"Pouvoi_des_fournisseurs")),
	(node:84, concept:(name:"Ventes_CSEG")),
	(node:85, concept:(name:"Ventes_CE")),
	(node:86, concept:(name:"Taux_de_pannes")),
	(node:87, concept:(name:"Retard_systematique_dans_la_production")),
	(node:88, concept:(name:"Quantite_de_production")),
	(node:89, concept:(name:"Barrieres_a_l_entree_dans_les_marches")),
	(node:90, concept:(name:"Credibilite_face_aux_fournisseurs")),
	(node:91, concept:(name:"Clients_satisfaits")),
	(node:92, concept:(name:"Domination/marche_concurrents_directs")),
	(node:93, concept:(name:"Domination/marche_produits_subtitution")),
	(node:94, concept:(name:"Volume_des_ventes")),
	(node:95, concept:(name:"Points_faibles")),
	(node:96, concept:(name:"Points_forts")),
	(node:97, concept:(name:"Marche_de_telephone_cripte")),
	(node:98, concept:(name:"Facteurs-cle-de-succes")),
	(node:99, concept:(name:"Conditionner_l_avenir_par_les_facteurs_cle_de_succes_de_la_SETCOM")),
	],

	% arc-labeling influences
	arc_labels:[
	(arc:(t:1, h:3), influence:(iblock:[1,2])),
	(arc:(t:2, h:6), influence:(iblock:[3,4])),
	(arc:(t:2, h:7), influence:(iblock:[3,4])),
	(arc:(t:2, h:8), influence:(iblock:[3,4])),
	(arc:(t:3, h:6), influence:(iblock:[3,4])),
	(arc:(t:4, h:9), influence:(iblock:[1,2])),
	(arc:(t:5, h:9), influence:(iblock:[3,4])),
	(arc:(t:6, h:53), influence:(iblock:[1,2])),
	(arc:(t:7, h:10), influence:(iblock:[1,2])),
	(arc:(t:7, h:96), influence:(iblock:[1,2])),
	(arc:(t:8, h:68), influence:(iblock:[1,2])),
	(arc:(t:9, h:11), influence:(iblock:[1,2])),
	(arc:(t:10, h:23), influence:(iblock:[1,2])),
	(arc:(t:11, h:29), influence:(iblock:[1,2])),
	(arc:(t:12, h:29), influence:(iblock:[1,2])),
	(arc:(t:13, h:32), influence:(iblock:[3,4])),
	(arc:(t:14, h:25), influence:(iblock:[3,4])),
	(arc:(t:14, h:33), influence:(iblock:[1,2])),
	(arc:(t:15, h:32), influence:(iblock:[1,2])),
	(arc:(t:16, h:32), influence:(iblock:[1,2])),
	(arc:(t:17, h:33), influence:(iblock:[1,2])),
	(arc:(t:17, h:35), influence:(iblock:[3,4])),
	(arc:(t:18, h:36), influence:(iblock:[1,2])),
	(arc:(t:18, h:37), influence:(iblock:[1,2])),
	(arc:(t:19, h:36), influence:(iblock:[1,2])),
	(arc:(t:19, h:37), influence:(iblock:[1,2])),
	(arc:(t:20, h:37), influence:(iblock:[1,2])),
	(arc:(t:21, h:38), influence:(iblock:[1,2])),
	(arc:(t:22, h:39), influence:(iblock:[1,2])),
	(arc:(t:23, h:39), influence:(iblock:[1,2])),
	(arc:(t:23, h:91), influence:(iblock:[1,2])),
	(arc:(t:24, h:40), influence:(iblock:[3,4])),
	(arc:(t:25, h:40), influence:(iblock:[3,4])),
	(arc:(t:26, h:41), influence:(iblock:[1,2])),
	(arc:(t:26, h:42), influence:(iblock:[1,2])),
	(arc:(t:27, h:41), influence:(iblock:[1,2])),
	(arc:(t:27, h:42), influence:(iblock:[1,2])),
	(arc:(t:28, h:42), influence:(iblock:[3,4])),
	(arc:(t:29, h:42), influence:(iblock:[-1,2])),
	(arc:(t:29, h:95), influence:(iblock:[1,2])),
	(arc:(t:30, h:44), influence:(iblock:[-1,2])),
	(arc:(t:31, h:44), influence:(iblock:[3,4])),
	(arc:(t:32, h:45), influence:(iblock:[3,4])),
	(arc:(t:32, h:46), influence:(iblock:[3,4])),
	(arc:(t:33, h:46), influence:(iblock:[1,2])),
	(arc:(t:34, h:49), influence:(iblock:[3,4])),
	(arc:(t:36, h:50), influence:(iblock:[1,2])),
	(arc:(t:37, h:50), influence:(iblock:[1,2])),
	(arc:(t:38, h:50), influence:(iblock:[1,2])),
	(arc:(t:39, h:52), influence:(iblock:[3,4])),
	(arc:(t:39, h:53), influence:(iblock:[1,2])),
	(arc:(t:40, h:94), influence:(iblock:[1,2])),
	(arc:(t:41, h:56), influence:(iblock:[1,2])),
	(arc:(t:42, h:81), influence:(iblock:[3,4])),
	(arc:(t:43, h:57), influence:(iblock:[3,4])),
	(arc:(t:44, h:65), influence:(iblock:[-1,2])),
	(arc:(t:44, h:95), influence:(iblock:[1,2])),
	(arc:(t:45, h:64), influence:(iblock:[1,2])),
	(arc:(t:47, h:65), influence:(iblock:[1,2])),
	(arc:(t:48, h:68), influence:(iblock:[3,4])),
	(arc:(t:49, h:68), influence:(iblock:[3,4])),
	(arc:(t:50, h:68), influence:(iblock:[3,4])),
	(arc:(t:51, h:65), influence:(iblock:[1,2])),
	(arc:(t:51, h:80), influence:(iblock:[3,4])),
	(arc:(t:52, h:68), influence:(iblock:[3,4])),
	(arc:(t:53, h:72), influence:(iblock:[1,2])),
	(arc:(t:54, h:72), influence:(iblock:[3,4])),
	(arc:(t:55, h:73), influence:(iblock:[1,2])),
	(arc:(t:56, h:81), influence:(iblock:[1,2])),
	(arc:(t:57, h:82), influence:(iblock:[3,4])),
	(arc:(t:58, h:82), influence:(iblock:[1,2])),
	(arc:(t:59, h:83), influence:(iblock:[3,4])),
	(arc:(t:60, h:83), influence:(iblock:[-1,2])),
	(arc:(t:61, h:83), influence:(iblock:[1,2])),
	(arc:(t:62, h:83), influence:(iblock:[1,2])),
	(arc:(t:63, h:82), influence:(iblock:[3,4])),
	(arc:(t:63, h:91), influence:(iblock:[3,4])),
	(arc:(t:64, h:84), influence:(iblock:[3,4])),
	(arc:(t:64, h:91), influence:(iblock:[1,2])),
	(arc:(t:65, h:87), influence:(iblock:[-1,2])),
	(arc:(t:65, h:88), influence:(iblock:[1,2])),
	(arc:(t:66, h:89), influence:(iblock:[1,2])),
	(arc:(t:67, h:89), influence:(iblock:[1,2])),
	(arc:(t:68, h:85), influence:(iblock:[3,4])),
	(arc:(t:68, h:91), influence:(iblock:[3,4])),
	(arc:(t:69, h:89), influence:(iblock:[1,2])),
	(arc:(t:70, h:89), influence:(iblock:[1,2])),
	(arc:(t:71, h:89), influence:(iblock:[1,2])),
	(arc:(t:72, h:91), influence:(iblock:[1,2])),
	(arc:(t:73, h:91), influence:(iblock:[-1,2])),
	(arc:(t:74, h:91), influence:(iblock:[1,2])),
	(arc:(t:75, h:92), influence:(iblock:[-1,2])),
	(arc:(t:76, h:92), influence:(iblock:[-1,2])),
	(arc:(t:77, h:92), influence:(iblock:[-1,2])),
	(arc:(t:78, h:93), influence:(iblock:[-1,2])),
	(arc:(t:79, h:93), influence:(iblock:[-3,4])),
	(arc:(t:80, h:96), influence:(iblock:[1,2])),
	(arc:(t:81, h:94), influence:(iblock:[1,2])),
	(arc:(t:82, h:94), influence:(iblock:[1,2])),
	(arc:(t:83, h:95), influence:(iblock:[3,4])),
	(arc:(t:84, h:94), influence:(iblock:[1,2])),
	(arc:(t:85, h:94), influence:(iblock:[1,2])),
	(arc:(t:86, h:95), influence:(iblock:[1,2])),
	(arc:(t:87, h:95), influence:(iblock:[1,2])),
	(arc:(t:89, h:95), influence:(iblock:[1,2])),
	(arc:(t:90, h:96), influence:(iblock:[1,2])),
	(arc:(t:91, h:96), influence:(iblock:[3,4])),
	(arc:(t:92, h:96), influence:(iblock:[1,2])),
	(arc:(t:93, h:96), influence:(iblock:[1,2])),
	(arc:(t:93, h:97), influence:(iblock:[1,2])),
	(arc:(t:94, h:98), influence:(iblock:[1,2])),
	(arc:(t:95, h:98), influence:(iblock:[-1,2])),
	(arc:(t:96, h:98), influence:(iblock:[1,2])),
	(arc:(t:98, h:99), influence:(iblock:[1,2])),
	],
);
