%%%%%%%%%%%%%%%%%%%%%%%%%%%%%%%%%%%%%%%%%%%%%%%%%
%%% INPUT C-MAP

icmap = (
% icm_I_1_dg_8x8_routes_1 = (
	% name
	name:"icm_I_1_dg_8x8_routes_1",
	
	% i-type
	itype: itype,
	
	% node-labeling concepts
	node_labels:[
	(node:1, concept:(name:"brouillard")),
	(node:2, concept:(name:"pluie")),
	(node:3, concept:(name:"autoroute")),
	(node:4, concept:(name:"route_secondaire")),
	(node:5, concept:(name:"mauvaise_visibilité")),
	(node:6, concept:(name:"route_glisssante")),
	(node:7, concept:(name:"route_sineuse")),
	(node:8, concept:(name:"accident")),
	],
	
	% arc-labeling influences
	arc_labels:[
	(arc:(t:1, h:5), influence:(iblock:[1,2])),
	(arc:(t:2, h:5), influence:(iblock:[1,4])),
	(arc:(t:2, h:6), influence:(iblock:[2,3])),
	(arc:(t:3, h:7), influence:(iblock:[1,3])),
	(arc:(t:4, h:7), influence:(iblock:[0,1])),
	(arc:(t:5, h:8), influence:(iblock:[-1,1])),
	(arc:(t:6, h:8), influence:(iblock:[-1,2])),
	(arc:(t:7, h:8), influence:(iblock:[-2,8])),
	],
);
