nb_paths=34;
matrix=array2d(1..13,1..13,[1, 7, 14, 5, 10, 11, 10, 10, 13, 21, 15, 5, 18, 2, 1, 8, 2, 4, 12, 4, 4, 12, 16, 12, 2, 14, 1, 3, 1, 1, 2, 6, 2, 2, 6, 8, 6, 1, 1, 1, 3, 10, 1, 2, 6, 2, 2, 6, 8, 6, 1, 16, 9, 8, 21, 9, 1, 11, 10, 1, 8, 7, 11, 9, 24, 3, 9, 9, 3, 6, 1, 6, 6, 3, 7, 5, 3, 7, 9, 8, 21, 9, 1, 11, 1, 1, 8, 7, 11, 9, 24, 9, 16, 33, 9, 9, 17, 5, 1, 10, 7, 13, 9, 34, 3, 9, 16, 3, 6, 8, 6, 6, 1, 5, 2, 3, 11, 1, 3, 10, 1, 2, 6, 2, 2, 6, 1, 6, 1, 16, 3, 9, 12, 3, 6, 4, 6, 6, 8, 12, 1, 3, 6, 13, 16, 20, 13, 5, 13, 5, 5, 13, 16, 9, 1, 18, 1, 3, 10, 1, 2, 6, 2, 2, 6, 8, 6, 1, 1]);
size_path=10;