%%%%%%%%%%%%%%%%%%%%%%%%%%%%%%%%%%%%%%%%%%%%%%%%%
%%% OPT SIGNED ENUMERATION I-TYPE
% I-type non-virtual domain elements
I_DOMAIN = {
	A,	% ambiguous
	P,	% plus
	N	% minus
};

% Symbols of non-virtual i-type domain elements
I_ = ["?", "+", "-"];

% I-type aggregation table
I_AGGREGATE =
[	
	(A,A):A,	(A,P):A,	(A,N):A,
	(P,A):A,	(P,P):P,	(P,N):A,
	(N,A):A,	(N,P):A,	(N,N):N,
];

% I-type propagation table
I_PROPAGATE =
[	
	(A,A):A,	(A,P):A,	(A,N):A,
	(P,A):A,	(P,P):P,	(P,N):N,
	(N,A):A,	(N,P):N,	(N,N):P,
];

itype_nr_sorts = 1;

itype_signature = (
	% the name of the i-type
% 	name:					"opt signed enumeration i-type",
	% the category of the i-type
	category:			ITYPE_CATEGORY_SINGLE_SORTED,
	% the tuple of sorts of the i-type
	sorts:					[ITYPE_SORT_ENUM],
	% the operations of the i-type
	operations:		[(ITYPE_AGGREGATION):ITYPE_AGGREGATION_ENUM, (ITYPE_PROPAGATION):ITYPE_PROPAGATION_ENUM],
);

itype_domains = (
	cardinalities:	[card(I_DOMAIN)],
);

itype_algebra = (
	% the algebraic properties of the i-type operations
	properties:		[
									(ITYPE_AGGREGATION,	ALGEBRAIC_PROPERTY_HAS_ABSORBING_ELEMENT):	true,
									(ITYPE_AGGREGATION,	ALGEBRAIC_PROPERTY_HAS_NEUTRAL_ELEMENT):		true,
									(ITYPE_AGGREGATION,	ALGEBRAIC_PROPERTY_COMMUTATIVITY):				true,
									(ITYPE_AGGREGATION,	ALGEBRAIC_PROPERTY_ASSOCIATIVITY):				true,
									
									(ITYPE_PROPAGATION,	ALGEBRAIC_PROPERTY_HAS_ABSORBING_ELEMENT):	true,
									(ITYPE_PROPAGATION,	ALGEBRAIC_PROPERTY_HAS_NEUTRAL_ELEMENT):		true,
									(ITYPE_PROPAGATION,	ALGEBRAIC_PROPERTY_COMMUTATIVITY):				true,
									(ITYPE_PROPAGATION,	ALGEBRAIC_PROPERTY_ASSOCIATIVITY):				true,
								],
	% the algebraic elements of the i-type operations
	aggregation_absorbing:	(iblock:[A]),
	aggregation_neutral:		(iblock:[<>]),
	propagation_absorbing:	(iblock:[<>]),
	propagation_neutral:		(iblock:[P]),	
);
