%%%%%%%%%%%%%%%%%%%%%%%%%%%%%%%%%%%%%%%%%%%%%%%%%
%%% OPT RATIONAL MIN/MAX I-TYPE

itype_nr_sorts = 1;

itype_signature = (
	% the name of the i-type
% 	name:					"opt rational min/max i-type",
	% the category of the i-type
	category:			ITYPE_CATEGORY_SINGLE_SORTED,
	% the tuple of sorts of the i-type
	sorts:					[ITYPE_SORT_RATIONAL],
	% the operations of the i-type
	operations:		[(ITYPE_AGGREGATION):ITYPE_AGGREGATION_MIN, (ITYPE_PROPAGATION):ITYPE_PROPAGATION_MAX],
);

itype_domains = (
	cardinalities:	[<>],
);

itype_algebra = (
	% the algebraic properties of the i-type operations
	properties:		[
									(ITYPE_AGGREGATION,	ALGEBRAIC_PROPERTY_HAS_ABSORBING_ELEMENT):	false,
									(ITYPE_AGGREGATION,	ALGEBRAIC_PROPERTY_HAS_NEUTRAL_ELEMENT):		true,
									(ITYPE_AGGREGATION,	ALGEBRAIC_PROPERTY_COMMUTATIVITY):				true,
									(ITYPE_AGGREGATION,	ALGEBRAIC_PROPERTY_ASSOCIATIVITY):				true,
									
									(ITYPE_PROPAGATION,	ALGEBRAIC_PROPERTY_HAS_ABSORBING_ELEMENT):	true,
									(ITYPE_PROPAGATION,	ALGEBRAIC_PROPERTY_HAS_NEUTRAL_ELEMENT):		true, %TODO should be false: either relax requirement (assertion) or required bounded rationals (eg {-1/1,..,1/1}) => itype to create
									(ITYPE_PROPAGATION,	ALGEBRAIC_PROPERTY_COMMUTATIVITY):				true,
									(ITYPE_PROPAGATION,	ALGEBRAIC_PROPERTY_ASSOCIATIVITY):				true,
								],
	% the algebraic elements of the i-type operations
	aggregation_absorbing:	(iblock:[<>,<>]),
	aggregation_neutral:		(iblock:[<>,<>]),
	propagation_absorbing:	(iblock:[<>,<>]),
	propagation_neutral:		(iblock:[<>,<>]),	
);
