%%%%%%%%%%%%%%%%%%%%%%%%%%%%%%%%%%%%%%%%%%%%%%%%%
%%% INPUT C-MAP

icmap = (
	% name
	name:"icm_R_1_dg_18x24_Poignonec_villages",

	% i-type
	itype: itype,

	% node-labeling concepts
	node_labels:[
	(node:1, concept:(name:"Etat_du_couvert_vegetal")),
	(node:2, concept:(name:"Institutions")),
	(node:3, concept:(name:"Activite_miniere")),
	(node:4, concept:(name:"Facteurs_naturels")),
	(node:5, concept:(name:"Agriculture_elevage")),
	(node:6, concept:(name:"Developpement_de_la_region")),
	(node:7, concept:(name:"erosion")),
	(node:8, concept:(name:"Gestion_reglementation_controle")),
	(node:9, concept:(name:"mangrove")),
	(node:10, concept:(name:"Vente_des_produits_de_la_mer")),
	(node:11, concept:(name:"eaux_usees")),
	(node:12, concept:(name:"Dechets_physiques_terrestres")),
	(node:13, concept:(name:"Eaux_douces")),
	(node:14, concept:(name:"Facteurs_influenant_la_peche")),
	(node:15, concept:(name:"pecheurs")),
	(node:16, concept:(name:"Milieu_recifo_lagonaire")),
	(node:17, concept:(name:"Etat_des_ressources")),
	(node:18, concept:(name:"peche")),
	],

	% arc-labeling influences
	arc_labels:[
	(arc:(t:1, h:7), influence:(iblock:[-6,5])),
	(arc:(t:2, h:8), influence:(iblock:[4,5])),
	(arc:(t:3, h:6), influence:(iblock:[7,5])),
	(arc:(t:3, h:7), influence:(iblock:[2,1])),
	(arc:(t:3, h:13), influence:(iblock:[-7,10])),
	(arc:(t:4, h:7), influence:(iblock:[3,2])),
	(arc:(t:4, h:16), influence:(iblock:[-9,10])),
	(arc:(t:4, h:17), influence:(iblock:[-9,10])),
	(arc:(t:5, h:13), influence:(iblock:[-9,10])),
	(arc:(t:6, h:10), influence:(iblock:[4,5])),
	(arc:(t:6, h:11), influence:(iblock:[13,10])),
	(arc:(t:6, h:12), influence:(iblock:[21,10])),
	(arc:(t:6, h:15), influence:(iblock:[23,10])),
	(arc:(t:7, h:13), influence:(iblock:[-2,1])),
	(arc:(t:8, h:18), influence:(iblock:[-1,1])),
	(arc:(t:9, h:16), influence:(iblock:[1,1])),
	(arc:(t:9, h:17), influence:(iblock:[21,10])),
	(arc:(t:10, h:15), influence:(iblock:[7,10])),
	(arc:(t:10, h:18), influence:(iblock:[7,5])),
	(arc:(t:11, h:13), influence:(iblock:[7,10])),
	(arc:(t:13, h:16), influence:(iblock:[7,5])),
	(arc:(t:14, h:18), influence:(iblock:[1,1])),
	(arc:(t:15, h:18), influence:(iblock:[16,5])),
	(arc:(t:16, h:17), influence:(iblock:[3,1])),
	],
);
