%%%%%%%%%%%%%%%%%%%%%%%%%%%%%%%%%%%%%%%%%%%%%%%%%
%%% DIGRAPH INSTANCE

dg_13x26_internet_1 = (
	% name
	name:"dg_13x26_internet_1",
	
	% number of nodes
	nr_nodes:13,
	
	% number of arcs
	nr_arcs:26,
	
	% arcs
	a:[
	(t:1, h:2),
	(t:1, h:6),
	(t:2, h:3),
	(t:2, h:4),
	(t:3, h:13),
	(t:4, h:1),
	(t:4, h:5),
	(t:4, h:12),
	(t:5, h:2),
	(t:5, h:6),
	(t:5, h:8),
	(t:6, h:3),
	(t:6, h:9),
	(t:7, h:5),
	(t:8, h:7),
	(t:8, h:9),
	(t:8, h:10),
	(t:9, h:10),
	(t:9, h:11),
	(t:10, h:4),
	(t:11, h:6),
	(t:11, h:13),
	(t:12, h:3),
	(t:12, h:7),
	(t:12, h:11),
	(t:13, h:4),
	])
;
