%%%%%%%%%%%%%%%%%%%%%%%%%%%%%%%%%%%%%%%%%%%%%%%%%
%%% INPUT C-MAP

icmap = (
	% name
	name:"icm_R_1_dg_49x57_Louca_Informatisation",

	% i-type
	itype: itype,

	% node-labeling concepts
	node_labels:[
	(node:1, concept:(name:"Support_d_entreprise_informatique")),
	(node:2, concept:(name:"Renforcer_Dep_Commercial")),
	(node:3, concept:(name:"Concevoir_la_page_web_de_chaque_poste_de_travail")),
	(node:4, concept:(name:"Nouvelles_ressources_informatique")),
	(node:5, concept:(name:"Utiliser_fax_automatique")),
	(node:6, concept:(name:"Age_du_personne_30_35")),
	(node:7, concept:(name:"Utiliser_SQL_serveur")),
	(node:8, concept:(name:"Diffuser_l_esprit_marketing_dans_l_entreprise")),
	(node:9, concept:(name:"Developper_communication_avec_l_exterieur")),
	(node:10, concept:(name:"Modeliser_les_postes_de_travail_en_reseaux")),
	(node:11, concept:(name:"Augmenter_rapidite_de_fabrication")),
	(node:12, concept:(name:"faire_des_reuinions_periodiques")),
	(node:13, concept:(name:"Acccepter_suggestions")),
	(node:14, concept:(name:"Utiliser_environnement_browser")),
	(node:15, concept:(name:"Documents_utiliser_format_PDF")),
	(node:16, concept:(name:"FAX_lie_au_SO")),
	(node:17, concept:(name:"Creer_BD_technique")),
	(node:18, concept:(name:"Augmenter_qualite")),
	(node:19, concept:(name:"Interagir")),
	(node:20, concept:(name:"Utiliser_le_SO_Windows_NT")),
	(node:21, concept:(name:"Utiliser_office_2000")),
	(node:22, concept:(name:"Utiliser_microsoft_business")),
	(node:23, concept:(name:"Simplifier_communication_internes")),
	(node:24, concept:(name:"Dialoguer")),
	(node:25, concept:(name:"Reduire_documents_en_papier")),
	(node:26, concept:(name:"Rapidite_de_consultation")),
	(node:27, concept:(name:"Paire_reflexion_interne")),
	(node:28, concept:(name:"Cohesion_d_equipe")),
	(node:29, concept:(name:"Qualite_des_produits_SETCOM")),
	(node:30, concept:(name:"Receptivite_au_nouveau_SI")),
	(node:31, concept:(name:"Confiance")),
	(node:32, concept:(name:"Identifier_dossier_produit_depuis_fournisseurs")),
	(node:33, concept:(name:"Concevoir_SI_integre")),
	(node:34, concept:(name:"Reduire_burocratie")),
	(node:35, concept:(name:"Abandonner_Novel")),
	(node:36, concept:(name:"Adapter_le_personnel_au_changement")),
	(node:37, concept:(name:"Points_forts")),
	(node:38, concept:(name:"Creer_perspective_de_projet")),
	(node:39, concept:(name:"Reduire_le_travail_dans_le_magasin")),
	(node:40, concept:(name:"Informatiser_toute_l_entreprise")),
	(node:41, concept:(name:"Fonctionnement_bureaucratique")),
	(node:42, concept:(name:"Resistance_a_changer_d_habitude_de_travail")),
	(node:43, concept:(name:"Nombre_de_commandes_a__fournisseurs")),
	(node:44, concept:(name:"Points_faibles")),
	(node:45, concept:(name:"Communication_interne_a_travers_le_SI")),
	(node:46, concept:(name:"Facteurs_cle_de_succes")),
	(node:47, concept:(name:"Reorganiser_a_travers_l_informatique")),
	(node:48, concept:(name:"Conditionner_l_avenir_par_les_facteur_cle_de_succes_de_la_SETCOM")),
	(node:49, concept:(name:"Rapidite_de_fabrication")),
	],

	% arc-labeling influences
	arc_labels:[
	(arc:(t:1, h:7), influence:(iblock:[1,2])),
	(arc:(t:2, h:8), influence:(iblock:[-1,2])),
	(arc:(t:2, h:9), influence:(iblock:[-1,2])),
	(arc:(t:3, h:8), influence:(iblock:[1,2])),
	(arc:(t:3, h:14), influence:(iblock:[1,2])),
	(arc:(t:4, h:11), influence:(iblock:[3,4])),
	(arc:(t:4, h:18), influence:(iblock:[1,2])),
	(arc:(t:5, h:16), influence:(iblock:[1,2])),
	(arc:(t:6, h:11), influence:(iblock:[1,2])),
	(arc:(t:6, h:19), influence:(iblock:[3,4])),
	(arc:(t:6, h:37), influence:(iblock:[1,2])),
	(arc:(t:7, h:17), influence:(iblock:[1,2])),
	(arc:(t:7, h:33), influence:(iblock:[1,2])),
	(arc:(t:8, h:46), influence:(iblock:[1,2])),
	(arc:(t:9, h:46), influence:(iblock:[3,4])),
	(arc:(t:10, h:23), influence:(iblock:[1,2])),
	(arc:(t:11, h:49), influence:(iblock:[1,2])),
	(arc:(t:12, h:24), influence:(iblock:[1,2])),
	(arc:(t:13, h:24), influence:(iblock:[1,2])),
	(arc:(t:14, h:33), influence:(iblock:[1,2])),
	(arc:(t:15, h:25), influence:(iblock:[3,4])),
	(arc:(t:16, h:25), influence:(iblock:[1,2])),
	(arc:(t:17, h:26), influence:(iblock:[3,4])),
	(arc:(t:18, h:29), influence:(iblock:[1,2])),
	(arc:(t:19, h:30), influence:(iblock:[1,2])),
	(arc:(t:20, h:45), influence:(iblock:[3,4])),
	(arc:(t:21, h:33), influence:(iblock:[1,2])),
	(arc:(t:22, h:34), influence:(iblock:[1,2])),
	(arc:(t:23, h:34), influence:(iblock:[3,4])),
	(arc:(t:24, h:36), influence:(iblock:[1,2])),
	(arc:(t:25, h:34), influence:(iblock:[3,4])),
	(arc:(t:25, h:45), influence:(iblock:[1,2])),
	(arc:(t:26, h:34), influence:(iblock:[1,2])),
	(arc:(t:27, h:36), influence:(iblock:[1,2])),
	(arc:(t:28, h:36), influence:(iblock:[3,4])),
	(arc:(t:28, h:37), influence:(iblock:[1,2])),
	(arc:(t:29, h:37), influence:(iblock:[1,2])),
	(arc:(t:30, h:37), influence:(iblock:[1,2])),
	(arc:(t:31, h:36), influence:(iblock:[1,2])),
	(arc:(t:31, h:37), influence:(iblock:[1,2])),
	(arc:(t:32, h:38), influence:(iblock:[1,2])),
	(arc:(t:32, h:39), influence:(iblock:[1,2])),
	(arc:(t:33, h:40), influence:(iblock:[3,4])),
	(arc:(t:34, h:41), influence:(iblock:[-1,2])),
	(arc:(t:35, h:42), influence:(iblock:[-1,2])),
	(arc:(t:36, h:42), influence:(iblock:[-1,2])),
	(arc:(t:37, h:46), influence:(iblock:[1,2])),
	(arc:(t:38, h:43), influence:(iblock:[1,2])),
	(arc:(t:40, h:47), influence:(iblock:[3,4])),
	(arc:(t:41, h:44), influence:(iblock:[1,2])),
	(arc:(t:42, h:44), influence:(iblock:[1,2])),
	(arc:(t:42, h:45), influence:(iblock:[-1,2])),
	(arc:(t:43, h:44), influence:(iblock:[1,2])),
	(arc:(t:44, h:46), influence:(iblock:[-1,2])),
	(arc:(t:45, h:46), influence:(iblock:[-1,2])),
	(arc:(t:46, h:48), influence:(iblock:[-1,2])),
	(arc:(t:49, h:44), influence:(iblock:[-1,2])),
	],
);
