%%%%%%%%%%%%%%%%%%%%%%%%%%%%%%%%%%%%%%%%%%%%%%%%%
%%% INPUT C-MAP

icmap = (
	% name
	name:"icm_R_1_dg_87x95_Louca_organisation",

	% i-type
	itype: itype,

	% node-labeling concepts
	node_labels:[
	(node:1, concept:(name:"UA_fait_les_commandes_directement")),
	(node:2, concept:(name:"Competences_commerciales")),
	(node:3, concept:(name:"Production_de_produits_Meteo")),
	(node:4, concept:(name:"Production_de_panneaux_de_FO")),
	(node:5, concept:(name:"Competences_d'ingenieurie")),
	(node:6, concept:(name:"Production_petites_series")),
	(node:7, concept:(name:"Production_de_produits_SOS")),
	(node:8, concept:(name:"Production_de_moyennes/grandes_series")),
	(node:9, concept:(name:"Competences_d'aprovisionnement")),
	(node:10, concept:(name:"Production_d'application_standard")),
	(node:11, concept:(name:"Competences_UA_Contrat")),
	(node:12, concept:(name:"Competences_UA_Systems")),
	(node:13, concept:(name:"Competences_UA_Produits")),
	(node:14, concept:(name:"Creer_UA_Contrat")),
	(node:15, concept:(name:"Creer_UA_Systems")),
	(node:16, concept:(name:"Creer_UA_Produits")),
	(node:17, concept:(name:"Creer_Unites_d'activite")),
	(node:18, concept:(name:"Definition_des_procedures_de_qualite")),
	(node:19, concept:(name:"Equipes_de_controle_de_qualite")),
	(node:20, concept:(name:"Definition_des_normes_de_qualite")),
	(node:21, concept:(name:"Dynamiser_l_idee_de_qualite")),
	(node:22, concept:(name:"Faire_une_commande_par_produit")),
	(node:23, concept:(name:"Manutention_du_programme_CERTIQUAL")),
	(node:24, concept:(name:"Definition_de_manuel_de_qualite")),
	(node:25, concept:(name:"Surveillance_de_la_qualite")),
	(node:26, concept:(name:"Informer_cadres_sur_l_EURO")),
	(node:27, concept:(name:"Adapter_la_contabilite_a_l_EURO")),
	(node:28, concept:(name:"Reparer_pannes")),
	(node:29, concept:(name:"Control_de_stocks")),
	(node:30, concept:(name:"DIOP_fait_les_commandes_directement")),
	(node:31, concept:(name:"Rendre_a_l_UA_le_produit_termine")),
	(node:32, concept:(name:"Gerer_le_personnel/fabrication")),
	(node:33, concept:(name:"Gerer_les_equipement")),
	(node:34, concept:(name:"Organiser_production")),
	(node:35, concept:(name:"Amelioration_du_system_qualite_SETCOM")),
	(node:36, concept:(name:"Faire_controle_de_qualite")),
	(node:37, concept:(name:"Faire_audit_au_processus_de_fabrication")),
	(node:38, concept:(name:"Assurer_processus_de_qualite")),
	(node:39, concept:(name:"Reception_des_MP")),
	(node:40, concept:(name:"Envoyer_produits_aux_clients")),
	(node:41, concept:(name:"DIAF_fait_les_commandes_directement")),
	(node:42, concept:(name:"Elaborer_le_budget")),
	(node:43, concept:(name:"Elaborer_comptabilite_generale")),
	(node:44, concept:(name:"Faire restructuration_financiere")),
	(node:45, concept:(name:"Adapter_l_entreprise_a_l_EURO")),
	(node:46, concept:(name:"Restructure_analitique_en_accord_avec_nouvelle_organisation")),
	(node:47, concept:(name:"Competences_DIOP_manutention")),
	(node:48, concept:(name:"Creer_direction_d_operation_DIOP")),
	(node:49, concept:(name:"Competences_DIOP_Production")),
	(node:50, concept:(name:"Competences_DIOP_Qualite_et_tests")),
	(node:51, concept:(name:"Competences_DIOP_Magasin")),
	(node:52, concept:(name:"Competences_DIAF")),
	(node:53, concept:(name:"Renforcer_dep_commercial")),
	(node:54, concept:(name:"Competences_DIOP")),
	(node:55, concept:(name:"Developper_communication_avec_l_exterieur")),
	(node:56, concept:(name:"Elaborer_contrats")),
	(node:57, concept:(name:"Elaborer_proposition")),
	(node:58, concept:(name:"Entree_de_nouveaux_accionaires")),
	(node:59, concept:(name:"Situation_tresorie")),
	(node:60, concept:(name:"Diffuser_l_esprit_marketing_dans_l_entreprise")),
	(node:61, concept:(name:"Focalisation_dans_la_tache")),
	(node:62, concept:(name:"Focalisation_dans_le_client")),
	(node:63, concept:(name:"Reorganiser_DIOP")),
	(node:64, concept:(name:"Organisation_du_dep_commercial")),
	(node:65, concept:(name:"Reorganiser_DIAF")),
	(node:66, concept:(name:"Situation_financiere")),
	(node:67, concept:(name:"Motiver_colaborateurs_pour_vision_strategique")),
	(node:68, concept:(name:"Divulger_vision_strategique_dans_l_entreprise")),
	(node:69, concept:(name:"Renforcer_marketing_operationnel")),
	(node:70, concept:(name:"Renforcer_marketing_strategique")),
	(node:71, concept:(name:"Changement_internes")),
	(node:72, concept:(name:"Reorganiser_a_travers_l_informatique")),
	(node:73, concept:(name:"Dynamiser_le_partage_de_la_vision_strategique")),
	(node:74, concept:(name:"Contentieux_judiciaires")),
	(node:75, concept:(name:"Ameliorer_image_externe")),
	(node:76, concept:(name:"Reorganiser_SETCOM")),
	(node:77, concept:(name:"Competences_conseil_d_administration")),
	(node:78, concept:(name:"Dependence_d_un_actionnaire")),
	(node:79, concept:(name:"Menaces_externes")),
	(node:80, concept:(name:"Image_externe_de_la_SETCOM")),
	(node:81, concept:(name:"Capacite_de_reponse")),
	(node:82, concept:(name:"Flexibilite_de_la_production")),
	(node:83, concept:(name:"Rendre_la_SETCOM_mieux_adaptee_aux_nouveaux_defis")),
	(node:84, concept:(name:"Points_faibles")),
	(node:85, concept:(name:"Points_forts")),
	(node:86, concept:(name:"Facteurs_cle_de_succes")),
	(node:87, concept:(name:"Conditionner_l_avenir_par_les_facteurs_cle_de_succes_de_la_SETCOM")),
	],

	% arc-labeling influences
	arc_labels:[
	(arc:(t:1, h:2), influence:(iblock:[1,2])),
	(arc:(t:1, h:5), influence:(iblock:[1,2])),
	(arc:(t:1, h:9), influence:(iblock:[1,2])),
	(arc:(t:2, h:11), influence:(iblock:[1,2])),
	(arc:(t:3, h:12), influence:(iblock:[1,2])),
	(arc:(t:4, h:12), influence:(iblock:[1,2])),
	(arc:(t:5, h:12), influence:(iblock:[1,2])),
	(arc:(t:6, h:12), influence:(iblock:[3,4])),
	(arc:(t:7, h:12), influence:(iblock:[3,4])),
	(arc:(t:8, h:13), influence:(iblock:[3,4])),
	(arc:(t:9, h:13), influence:(iblock:[1,2])),
	(arc:(t:10, h:13), influence:(iblock:[3,4])),
	(arc:(t:11, h:14), influence:(iblock:[1,2])),
	(arc:(t:12, h:15), influence:(iblock:[1,2])),
	(arc:(t:13, h:16), influence:(iblock:[1,2])),
	(arc:(t:14, h:17), influence:(iblock:[3,4])),
	(arc:(t:15, h:17), influence:(iblock:[3,4])),
	(arc:(t:16, h:17), influence:(iblock:[3,4])),
	(arc:(t:17, h:71), influence:(iblock:[1,2])),
	(arc:(t:18, h:24), influence:(iblock:[1,2])),
	(arc:(t:19, h:23), influence:(iblock:[1,2])),
	(arc:(t:19, h:25), influence:(iblock:[3,4])),
	(arc:(t:20, h:24), influence:(iblock:[1,2])),
	(arc:(t:21, h:35), influence:(iblock:[3,4])),
	(arc:(t:22, h:30), influence:(iblock:[1,2])),
	(arc:(t:22, h:41), influence:(iblock:[1,2])),
	(arc:(t:23, h:35), influence:(iblock:[3,4])),
	(arc:(t:24, h:35), influence:(iblock:[3,4])),
	(arc:(t:25, h:38), influence:(iblock:[1,2])),
	(arc:(t:26, h:45), influence:(iblock:[1,2])),
	(arc:(t:27, h:45), influence:(iblock:[3,4])),
	(arc:(t:28, h:47), influence:(iblock:[3,4])),
	(arc:(t:29, h:47), influence:(iblock:[3,4])),
	(arc:(t:30, h:47), influence:(iblock:[1,2])),
	(arc:(t:31, h:49), influence:(iblock:[3,4])),
	(arc:(t:32, h:49), influence:(iblock:[3,4])),
	(arc:(t:33, h:49), influence:(iblock:[1,2])),
	(arc:(t:34, h:49), influence:(iblock:[3,4])),
	(arc:(t:35, h:50), influence:(iblock:[1,2])),
	(arc:(t:36, h:50), influence:(iblock:[3,4])),
	(arc:(t:37, h:50), influence:(iblock:[1,2])),
	(arc:(t:38, h:50), influence:(iblock:[1,2])),
	(arc:(t:39, h:51), influence:(iblock:[1,2])),
	(arc:(t:40, h:51), influence:(iblock:[1,2])),
	(arc:(t:41, h:52), influence:(iblock:[1,2])),
	(arc:(t:42, h:52), influence:(iblock:[1,2])),
	(arc:(t:43, h:52), influence:(iblock:[1,2])),
	(arc:(t:44, h:52), influence:(iblock:[1,2])),
	(arc:(t:45, h:52), influence:(iblock:[1,2])),
	(arc:(t:46, h:52), influence:(iblock:[1,2])),
	(arc:(t:47, h:54), influence:(iblock:[1,2])),
	(arc:(t:48, h:54), influence:(iblock:[1,2])),
	(arc:(t:49, h:54), influence:(iblock:[3,4])),
	(arc:(t:50, h:54), influence:(iblock:[1,2])),
	(arc:(t:51, h:54), influence:(iblock:[1,2])),
	(arc:(t:52, h:65), influence:(iblock:[1,2])),
	(arc:(t:53, h:60), influence:(iblock:[1,2])),
	(arc:(t:54, h:63), influence:(iblock:[1,2])),
	(arc:(t:55, h:64), influence:(iblock:[1,2])),
	(arc:(t:56, h:64), influence:(iblock:[1,2])),
	(arc:(t:57, h:64), influence:(iblock:[1,2])),
	(arc:(t:58, h:66), influence:(iblock:[1,2])),
	(arc:(t:59, h:66), influence:(iblock:[-1,2])),
	(arc:(t:60, h:68), influence:(iblock:[1,2])),
	(arc:(t:60, h:69), influence:(iblock:[1,2])),
	(arc:(t:61, h:69), influence:(iblock:[-1,2])),
	(arc:(t:61, h:70), influence:(iblock:[-1,2])),
	(arc:(t:61, h:84), influence:(iblock:[3,4])),
	(arc:(t:62, h:69), influence:(iblock:[3,4])),
	(arc:(t:62, h:70), influence:(iblock:[3,4])),
	(arc:(t:63, h:71), influence:(iblock:[1,2])),
	(arc:(t:64, h:71), influence:(iblock:[1,2])),
	(arc:(t:65, h:71), influence:(iblock:[1,2])),
	(arc:(t:66, h:71), influence:(iblock:[-1,2])),
	(arc:(t:66, h:84), influence:(iblock:[-1,2])),
	(arc:(t:67, h:73), influence:(iblock:[3,4])),
	(arc:(t:68, h:73), influence:(iblock:[1,2])),
	(arc:(t:69, h:75), influence:(iblock:[1,2])),
	(arc:(t:70, h:75), influence:(iblock:[1,2])),
	(arc:(t:71, h:76), influence:(iblock:[1,2])),
	(arc:(t:72, h:76), influence:(iblock:[1,2])),
	(arc:(t:73, h:77), influence:(iblock:[3,4])),
	(arc:(t:74, h:79), influence:(iblock:[1,2])),
	(arc:(t:75, h:80), influence:(iblock:[1,2])),
	(arc:(t:76, h:81), influence:(iblock:[1,2])),
	(arc:(t:76, h:83), influence:(iblock:[1,2])),
	(arc:(t:77, h:83), influence:(iblock:[1,2])),
	(arc:(t:78, h:84), influence:(iblock:[1,2])),
	(arc:(t:79, h:84), influence:(iblock:[1,2])),
	(arc:(t:80, h:84), influence:(iblock:[-1,2])),
	(arc:(t:81, h:85), influence:(iblock:[1,2])),
	(arc:(t:82, h:85), influence:(iblock:[1,2])),
	(arc:(t:84, h:86), influence:(iblock:[-1,2])),
	(arc:(t:85, h:86), influence:(iblock:[1,2])),
	(arc:(t:86, h:87), influence:(iblock:[1,2])),
	],
);
