%%%%%%%%%%%%%%%%%%%%%%%%%%%%%%%%%%%%%%%%%%%%%%%%%
%%% INPUT C-MAP

icmap = (
	% name
	name:"icm_R_1_dg_113x121_Louca_Marches",

	% i-type
	itype: itype,

	% node-labeling concepts
	node_labels:[
	(node:1, concept:(name:"Pression_des_groupes_ecologiques")),
	(node:2, concept:(name:"Exigences_de_certification_de_qualite")),
	(node:3, concept:(name:"Assistance_pre_vente")),
	(node:4, concept:(name:"Assistance_post_vente")),
	(node:5, concept:(name:"Recherche_sur_la_communication_METEO")),
	(node:6, concept:(name:"Recherche_sur_la_communication_SOS")),
	(node:7, concept:(name:"Inover")),
	(node:8, concept:(name:"Exigences_de_qualite")),
	(node:9, concept:(name:"Exigences_de_delai")),
	(node:10, concept:(name:"Exigences_de_paix")),
	(node:11, concept:(name:"Nombre_de_grands_groupes_de_distribution")),
	(node:12, concept:(name:"Nombre_de_petits_fournisseurs")),
	(node:13, concept:(name:"Dependence_de_la_BRISA")),
	(node:14, concept:(name:"Dependence_de_la_SMD")),
	(node:15, concept:(name:"Augmenter_flexibilite")),
	(node:16, concept:(name:"Receptivite_produits_PTEL")),
	(node:17, concept:(name:"Receptivite_produits_SIR")),
	(node:18, concept:(name:"Ameliorer_le_support_technique_commercial")),
	(node:19, concept:(name:"Conception_de_system_TELIS")),
	(node:20, concept:(name:"Qualite_panneaux_LEDIS")),
	(node:21, concept:(name:"Activite_en_Roumanie")),
	(node:22, concept:(name:"Activite_en_Hongrie")),
	(node:23, concept:(name:"Concurrence_Motorrela")),
	(node:24, concept:(name:"Concurrence_Siemens")),
	(node:25, concept:(name:"Concurrence_Alcard")),
	(node:26, concept:(name:"Concurrence_Philips")),
	(node:27, concept:(name:"Concevoir_nouveaux_produits")),
	(node:28, concept:(name:"Concurrence_Ondes")),
	(node:29, concept:(name:"Concurrence_TST")),
	(node:30, concept:(name:"Concurrence_criptoAG")),
	(node:31, concept:(name:"Creation_de_mecanisme_de_contact")),
	(node:32, concept:(name:"Identifier_entreprise_a_contacter")),
	(node:33, concept:(name:"Suivie_des_contacts")),
	(node:34, concept:(name:"Connaissance_de_la_concurrence")),
	(node:35, concept:(name:"Contacter_organisation_commercialles")),
	(node:36, concept:(name:"Exigences_de_marches")),
	(node:37, concept:(name:"Nombre_de_fournisseurs")),
	(node:38, concept:(name:"Diversifier_clients")),
	(node:39, concept:(name:"Dependance_de_clients")),
	(node:40, concept:(name:"Capacite_de_reponse")),
	(node:41, concept:(name:"Besoins_de_communication_sures")),
	(node:42, concept:(name:"Developpement_des_telecommunications")),
	(node:43, concept:(name:"Modernisation_des_bateaux_de_peche")),
	(node:44, concept:(name:"Entree_dans_le_marche_produits_de_subtitution")),
	(node:45, concept:(name:"Entree_dans_le_marche_de_nouveaux_concurrents")),
	(node:46, concept:(name:"Augmenter_capacite_d_adaptation")),
	(node:47, concept:(name:"Qualite_paneaux_fibre_optique")),
	(node:48, concept:(name:"Receptivite_produits_SETCOM")),
	(node:49, concept:(name:"Lien_de_marche_militaire_a_l_industrie")),
	(node:50, concept:(name:"Dynamique_d_influence_pres_des_clients")),
	(node:51, concept:(name:"Vendre_nouveaux_panneaux_de_signalisation")),
	(node:52, concept:(name:"Proximite_de_voies_de_transport_de_marchandises")),
	(node:53, concept:(name:"Recherche_de_nouvelles_activites")),
	(node:54, concept:(name:"Ameliorer_designe_des_postes_SOS_autoroutes")),
	(node:55, concept:(name:"Activite_en_Russie_Ibertronix")),
	(node:56, concept:(name:"Activite_en_Espagne")),
	(node:57, concept:(name:"Globalisation_des_marches")),
	(node:58, concept:(name:"Activite_en_Europaliance")),
	(node:59, concept:(name:"Activite_au_Bresil_Allentreprise")),
	(node:60, concept:(name:"Augmenter_marge_de_commercialisation_par_distributeurs")),
	(node:61, concept:(name:"Concurrence_grands_producteurs_telecom")),
	(node:62, concept:(name:"Proposer_nouvelles_technologies")),
	(node:63, concept:(name:"Proposer_technologies_existantes")),
	(node:64, concept:(name:"Concurrence_importateurs")),
	(node:65, concept:(name:"Concurrence_specialistes_en_comm_securises")),
	(node:66, concept:(name:"Contacter_clients_potentiels")),
	(node:67, concept:(name:"Definition_des_domaines_de_know_how")),
	(node:68, concept:(name:"Connaissance_du_marche")),
	(node:69, concept:(name:"Renforcer_Dep_Commercial")),
	(node:70, concept:(name:"Dev_autoroutes")),
	(node:71, concept:(name:"Dev_IP")),
	(node:72, concept:(name:"Consolider_le_marche_national")),
	(node:73, concept:(name:"Ventes_CSEG")),
	(node:74, concept:(name:"Ventes_DGTE")),
	(node:75, concept:(name:"Localisation_de_l_usine")),
	(node:76, concept:(name:"Ventes_SIR")),
	(node:77, concept:(name:"Internationaliser_l_activite")),
	(node:78, concept:(name:"Ventes_PTEL")),
	(node:79, concept:(name:"Ventes_PS")),
	(node:80, concept:(name:"Augmenter_Ventes_pour_les_clients_existants")),
	(node:81, concept:(name:"Ventes_CE")),
	(node:82, concept:(name:"Concurrence")),
	(node:83, concept:(name:"Ventes_pour_le_trafic_aerien")),
	(node:84, concept:(name:"Reseau_RDIS_segment_grand_potentiel")),
	(node:85, concept:(name:"Augmenter_ventes_pour_les_nouveaux_clients")),
	(node:86, concept:(name:"Ventes_pour_le_marche_residentiel")),
	(node:87, concept:(name:"Recherche_de_marches")),
	(node:88, concept:(name:"TV_cable_segment_de_grand_potentiel")),
	(node:89, concept:(name:"Developper_communication_avec_l_exterieur")),
	(node:90, concept:(name:"Developpement_des_voies_de_communication")),
	(node:91, concept:(name:"Augmenter_les_ventes_dans_les_segments_de_marches_actuelles")),
	(node:92, concept:(name:"Augmenter_les_ventes_dans_les_nouveaux_segments_de_marche")),
	(node:93, concept:(name:"Participer_dans_les_depenses_de_promotion")),
	(node:94, concept:(name:"Setcom_fabrique_produits_nationaux")),
	(node:95, concept:(name:"Qualite_des_infrastructures_industrielles_de_quita_do_anjo")),
	(node:96, concept:(name:"Proposer_amelioration_du_processus_de_fabrication")),
	(node:97, concept:(name:"Concevoir_dossier_produit")),
	(node:98, concept:(name:"Concurrence_de_crocker_de_la_force")),
	(node:99, concept:(name:"Augmenter_les_ventes_totales")),
	(node:100, concept:(name:"Reduire_le_temps_de_reponse_pour_devis")),
	(node:101, concept:(name:"Credibilite_face_aux_fournisseurs")),
	(node:102, concept:(name:"Commandes_de_l_armee")),
	(node:103, concept:(name:"Qualite_de_la_localisation_de_l_usine")),
	(node:104, concept:(name:"Style_de_rapport_avec_les_clients")),
	(node:105, concept:(name:"Profil_des_delegues_commercieaux")),
	(node:106, concept:(name:"Niveau_de_time_to_market")),
	(node:107, concept:(name:"Penetration_dans_la_JaE")),
	(node:108, concept:(name:"Volume_de_ventes")),
	(node:109, concept:(name:"Temps_de_reponse_pour_devis")),
	(node:110, concept:(name:"Points_forts")),
	(node:111, concept:(name:"Points_faibles")),
	(node:112, concept:(name:"Facteurs_cle_de_succes")),
	(node:113, concept:(name:"Conditionner_l_avenir_par_les_facteurs_cle_de_succes_de_la_SETCOM")),
	],

	% arc-labeling influences
	arc_labels:[
	(arc:(t:1, h:8), influence:(iblock:[1,2])),
	(arc:(t:2, h:8), influence:(iblock:[1,2])),
	(arc:(t:3, h:18), influence:(iblock:[1,2])),
	(arc:(t:3, h:38), influence:(iblock:[1,2])),
	(arc:(t:4, h:18), influence:(iblock:[1,2])),
	(arc:(t:5, h:19), influence:(iblock:[3,4])),
	(arc:(t:6, h:19), influence:(iblock:[3,4])),
	(arc:(t:7, h:27), influence:(iblock:[1,2])),
	(arc:(t:8, h:36), influence:(iblock:[3,4])),
	(arc:(t:9, h:36), influence:(iblock:[1,2])),
	(arc:(t:10, h:36), influence:(iblock:[1,2])),
	(arc:(t:11, h:37), influence:(iblock:[-1,2])),
	(arc:(t:12, h:37), influence:(iblock:[1,2])),
	(arc:(t:13, h:39), influence:(iblock:[1,2])),
	(arc:(t:14, h:39), influence:(iblock:[1,2])),
	(arc:(t:15, h:46), influence:(iblock:[3,4])),
	(arc:(t:16, h:48), influence:(iblock:[1,2])),
	(arc:(t:17, h:48), influence:(iblock:[1,2])),
	(arc:(t:18, h:50), influence:(iblock:[1,2])),
	(arc:(t:19, h:51), influence:(iblock:[1,2])),
	(arc:(t:20, h:51), influence:(iblock:[1,2])),
	(arc:(t:21, h:58), influence:(iblock:[3,4])),
	(arc:(t:22, h:58), influence:(iblock:[1,2])),
	(arc:(t:23, h:61), influence:(iblock:[1,2])),
	(arc:(t:24, h:61), influence:(iblock:[1,2])),
	(arc:(t:25, h:61), influence:(iblock:[1,2])),
	(arc:(t:26, h:61), influence:(iblock:[1,2])),
	(arc:(t:27, h:62), influence:(iblock:[3,4])),
	(arc:(t:28, h:64), influence:(iblock:[1,2])),
	(arc:(t:29, h:65), influence:(iblock:[1,2])),
	(arc:(t:30, h:65), influence:(iblock:[1,2])),
	(arc:(t:31, h:66), influence:(iblock:[1,2])),
	(arc:(t:32, h:66), influence:(iblock:[1,2])),
	(arc:(t:33, h:66), influence:(iblock:[1,2])),
	(arc:(t:34, h:68), influence:(iblock:[1,2])),
	(arc:(t:35, h:68), influence:(iblock:[1,2])),
	(arc:(t:36, h:68), influence:(iblock:[-1,2])),
	(arc:(t:37, h:68), influence:(iblock:[-1,2])),
	(arc:(t:38, h:72), influence:(iblock:[3,4])),
	(arc:(t:39, h:72), influence:(iblock:[-1,2])),
	(arc:(t:40, h:80), influence:(iblock:[1,2])),
	(arc:(t:40, h:110), influence:(iblock:[3,4])),
	(arc:(t:41, h:72), influence:(iblock:[1,2])),
	(arc:(t:42, h:72), influence:(iblock:[1,2])),
	(arc:(t:43, h:72), influence:(iblock:[1,2])),
	(arc:(t:44, h:72), influence:(iblock:[-3,4])),
	(arc:(t:45, h:72), influence:(iblock:[-1,2])),
	(arc:(t:46, h:72), influence:(iblock:[3,4])),
	(arc:(t:47, h:72), influence:(iblock:[1,2])),
	(arc:(t:48, h:72), influence:(iblock:[1,2])),
	(arc:(t:49, h:72), influence:(iblock:[1,2])),
	(arc:(t:50, h:72), influence:(iblock:[3,4])),
	(arc:(t:51, h:72), influence:(iblock:[3,4])),
	(arc:(t:52, h:75), influence:(iblock:[1,2])),
	(arc:(t:52, h:77), influence:(iblock:[3,4])),
	(arc:(t:53, h:72), influence:(iblock:[3,4])),
	(arc:(t:53, h:77), influence:(iblock:[1,2])),
	(arc:(t:54, h:72), influence:(iblock:[1,2])),
	(arc:(t:54, h:77), influence:(iblock:[1,2])),
	(arc:(t:55, h:77), influence:(iblock:[3,4])),
	(arc:(t:56, h:77), influence:(iblock:[1,2])),
	(arc:(t:57, h:77), influence:(iblock:[1,2])),
	(arc:(t:58, h:77), influence:(iblock:[1,2])),
	(arc:(t:59, h:77), influence:(iblock:[1,2])),
	(arc:(t:60, h:80), influence:(iblock:[1,2])),
	(arc:(t:61, h:82), influence:(iblock:[1,2])),
	(arc:(t:62, h:80), influence:(iblock:[1,2])),
	(arc:(t:62, h:85), influence:(iblock:[3,4])),
	(arc:(t:63, h:80), influence:(iblock:[3,4])),
	(arc:(t:63, h:85), influence:(iblock:[1,2])),
	(arc:(t:64, h:82), influence:(iblock:[1,2])),
	(arc:(t:65, h:82), influence:(iblock:[1,2])),
	(arc:(t:66, h:85), influence:(iblock:[1,2])),
	(arc:(t:67, h:87), influence:(iblock:[3,4])),
	(arc:(t:68, h:87), influence:(iblock:[1,2])),
	(arc:(t:68, h:111), influence:(iblock:[-1,2])),
	(arc:(t:69, h:89), influence:(iblock:[1,2])),
	(arc:(t:70, h:90), influence:(iblock:[1,2])),
	(arc:(t:71, h:90), influence:(iblock:[1,2])),
	(arc:(t:72, h:91), influence:(iblock:[1,2])),
	(arc:(t:73, h:91), influence:(iblock:[1,2])),
	(arc:(t:74, h:91), influence:(iblock:[-1,2])),
	(arc:(t:76, h:91), influence:(iblock:[1,2])),
	(arc:(t:77, h:91), influence:(iblock:[1,2])),
	(arc:(t:77, h:92), influence:(iblock:[1,2])),
	(arc:(t:78, h:91), influence:(iblock:[1,2])),
	(arc:(t:79, h:91), influence:(iblock:[1,2])),
	(arc:(t:80, h:91), influence:(iblock:[3,4])),
	(arc:(t:81, h:91), influence:(iblock:[1,2])),
	(arc:(t:82, h:91), influence:(iblock:[-1,2])),
	(arc:(t:82, h:92), influence:(iblock:[3,4])),
	(arc:(t:83, h:92), influence:(iblock:[3,4])),
	(arc:(t:84, h:92), influence:(iblock:[3,4])),
	(arc:(t:85, h:92), influence:(iblock:[1,2])),
	(arc:(t:86, h:92), influence:(iblock:[1,2])),
	(arc:(t:87, h:92), influence:(iblock:[1,2])),
	(arc:(t:88, h:92), influence:(iblock:[1,2])),
	(arc:(t:89, h:92), influence:(iblock:[1,2])),
	(arc:(t:90, h:95), influence:(iblock:[1,2])),
	(arc:(t:91, h:99), influence:(iblock:[1,2])),
	(arc:(t:92, h:99), influence:(iblock:[3,4])),
	(arc:(t:93, h:101), influence:(iblock:[1,2])),
	(arc:(t:94, h:102), influence:(iblock:[3,4])),
	(arc:(t:95, h:103), influence:(iblock:[1,2])),
	(arc:(t:96, h:106), influence:(iblock:[3,4])),
	(arc:(t:97, h:106), influence:(iblock:[1,2])),
	(arc:(t:98, h:107), influence:(iblock:[-1,2])),
	(arc:(t:99, h:108), influence:(iblock:[1,2])),
	(arc:(t:100, h:109), influence:(iblock:[-1,2])),
	(arc:(t:101, h:110), influence:(iblock:[1,2])),
	(arc:(t:102, h:110), influence:(iblock:[1,2])),
	(arc:(t:103, h:110), influence:(iblock:[1,2])),
	(arc:(t:104, h:110), influence:(iblock:[1,2])),
	(arc:(t:105, h:110), influence:(iblock:[1,2])),
	(arc:(t:106, h:111), influence:(iblock:[-1,2])),
	(arc:(t:107, h:111), influence:(iblock:[-1,2])),
	(arc:(t:108, h:111), influence:(iblock:[-1,2])),
	(arc:(t:109, h:111), influence:(iblock:[-1,2])),
	(arc:(t:110, h:112), influence:(iblock:[1,2])),
	(arc:(t:111, h:112), influence:(iblock:[-1,2])),
	(arc:(t:112, h:113), influence:(iblock:[1,2])),
	],
);
